p cnf 12 24
-3 5 0
11 2 -1 0
6 -4 -10 -1 2 9 -5 -3 -7 8 -12 11 0
-9 -3 -5 -2 0
8 10 6 7 -3 4 -5 -2 1 11 -12 -9 0
-12 -11 -5 -3 -1 9 7 4 -6 10 0
-1 4 11 0
12 7 -3 11 0
-6 -8 -9 -1 -3 -11 -7 -2 -5 12 0
5 -2 8 10 0
-2 -3 0
-8 -3 -12 0
8 2 5 -4 0
-12 2 -5 -8 0
-11 2 6 12 0
-8 -1 -9 10 11 0
-7 -6 5 0
3 -8 -10 1 0
2 9 10 6 3 -8 -5 12 -1 0
6 11 5 0
-2 8 0
-3 -6 2 -9 0
7 2 0
-10 -6 8 4 -9 5 -3 2 11 0
